sat
(
(define-fun I () String "")
(define-fun K () String "")
(define-fun G () String "aa")
(define-fun E () String "")
(define-fun F () String "")
(define-fun M () String "aa")
(define-fun Q () String "")
)
